Minimize
	value: tt

Subject to
tt + 1000 s_1_1 > 0.0
tt - t_1_1 - 1001.309752 s_1_1  + 1.309752 s_1_7  > -982.604100
tt + 1000 s_2_1 > 0.0
tt - t_2_1 - 1001.280844 s_2_1  + 1.280844 s_2_7  > -983.724800
tt + 1000 s_1_2 > 0.0
tt - t_1_2 - 1001.309752 s_1_2  + 1.309752 s_1_8  > -981.454369
tt + 1000 s_2_2 > 0.0
tt - t_2_2 - 1001.280844 s_2_2  + 1.280844 s_2_8  > -983.480293
tt + 1000 s_1_3 > 0.0
tt - t_1_3 - 1001.309752 s_1_3  + 1.309752 s_1_8  > -969.702133
tt + 1000 s_2_3 > 0.0
tt - t_2_3 - 1001.280844 s_2_3  + 1.280844 s_2_8  > -979.490750
tt + 1000 s_1_4 > 0.0
tt - t_1_4 - 1001.773575 s_1_4  + 0.463823 s_1_3  + 1.309752 s_1_8  > -984.627258
tt + 1000 s_2_4 > 0.0
tt - t_2_4 - 1002.186388 s_2_4  + 0.905544 s_2_3  + 1.280844 s_2_8  > -990.354542
tt + 1000 s_1_5 > 0.0
tt - t_1_5 - 1002.619504 s_1_5  + 1.309752 s_1_7  + 1.309752 s_1_8  > -976.980372
tt + 1000 s_2_5 > 0.0
tt - t_2_5 - 1002.561689 s_2_5  + 1.280844 s_2_7  + 1.280844 s_2_8  > -985.476964
tt + 1000 s_1_6 > 0.0
tt - t_1_6 - 1002.319114 s_1_6  + 0.463823 s_1_2  + 0.463823 s_1_4  + 0.463823 s_1_1  + 0.463823 s_1_3  + 0.463823 s_1_5  > -998.868333
tt + 1000 s_2_6 > 0.0
tt - t_2_6 - 1004.527720 s_2_6  + 0.905544 s_2_2  + 0.905544 s_2_4  + 0.905544 s_2_1  + 0.905544 s_2_3  + 0.905544 s_2_5  > -991.955700
tt + 1000 s_1_7 > 0.0
tt - t_1_7 - 1000.000000 s_1_7  > -935.739650
tt + 1000 s_2_7 > 0.0
tt - t_2_7 - 1000.000000 s_2_7  > -972.448200
tt + 1000 s_1_8 > 0.0
tt - t_1_8 - 1000.000000 s_1_8  > -935.570400
tt + 1000 s_2_8 > 0.0
tt - t_2_8 - 1000.000000 s_2_8  > -973.006833
s_1_1 + s_2_1 = 1
s_1_2 + s_2_2 = 1
s_1_3 + s_2_3 = 1
s_1_4 + s_2_4 = 1
s_1_5 + s_2_5 = 1
s_1_6 + s_2_6 = 1
s_1_7 + s_2_7 = 1
s_1_8 + s_2_8 = 1
s_1_1 + s_1_2 + 1000 r_1_1_2 >= 2
- s_1_1 - s_1_2 - 1000 r_1_1_2 >= -1001
t_1_1 - t_1_2 - 1000.000000 u_1_1_2 - 1.309752 s_1_2  + 1.309752 s_1_8  + 2000.000000 r_1_1_2 > -981.454369
s_2_1 + s_2_2 + 1000 r_2_1_2 >= 2
- s_2_1 - s_2_2 - 1000 r_2_1_2 >= -1001
t_2_1 - t_2_2 - 1000.000000 u_2_1_2 - 1.280844 s_2_2  + 1.280844 s_2_8  + 2000.000000 r_2_1_2 > -983.480293
s_1_1 + s_1_3 + 1000 r_1_1_3 >= 2
- s_1_1 - s_1_3 - 1000 r_1_1_3 >= -1001
t_1_1 - t_1_3 - 1000.000000 u_1_1_3 - 1.309752 s_1_3  + 1.309752 s_1_8  + 2000.000000 r_1_1_3 > -969.702133
s_2_1 + s_2_3 + 1000 r_2_1_3 >= 2
- s_2_1 - s_2_3 - 1000 r_2_1_3 >= -1001
t_2_1 - t_2_3 - 1000.000000 u_2_1_3 - 1.280844 s_2_3  + 1.280844 s_2_8  + 2000.000000 r_2_1_3 > -979.490750
s_1_1 + s_1_4 + 1000 r_1_1_4 >= 2
- s_1_1 - s_1_4 - 1000 r_1_1_4 >= -1001
t_1_1 - t_1_4 - 1000.000000 u_1_1_4 - 1.773575 s_1_4  + 0.463823 s_1_3  + 1.309752 s_1_8  + 2000.000000 r_1_1_4 > -984.627258
s_2_1 + s_2_4 + 1000 r_2_1_4 >= 2
- s_2_1 - s_2_4 - 1000 r_2_1_4 >= -1001
t_2_1 - t_2_4 - 1000.000000 u_2_1_4 - 2.186388 s_2_4  + 0.905544 s_2_3  + 1.280844 s_2_8  + 2000.000000 r_2_1_4 > -990.354542
s_1_1 + s_1_5 + 1000 r_1_1_5 >= 2
- s_1_1 - s_1_5 - 1000 r_1_1_5 >= -1001
t_1_1 - t_1_5 - 1000.000000 u_1_1_5 - 2.619504 s_1_5  + 1.309752 s_1_7  + 1.309752 s_1_8  + 2000.000000 r_1_1_5 > -976.980372
s_2_1 + s_2_5 + 1000 r_2_1_5 >= 2
- s_2_1 - s_2_5 - 1000 r_2_1_5 >= -1001
t_2_1 - t_2_5 - 1000.000000 u_2_1_5 - 2.561689 s_2_5  + 1.280844 s_2_7  + 1.280844 s_2_8  + 2000.000000 r_2_1_5 > -985.476964
t_1_6 - t_1_1 - 1001.309752 s_1_1  + 1.309752 s_1_7  > -982.604100
t_1_6 - t_2_1 - 1001.280844 s_2_1  + 1.280844 s_2_7  > -983.724800
t_2_6 - t_1_1 - 1001.309752 s_1_1  + 1.309752 s_1_7  > -982.604100
t_2_6 - t_2_1 - 1001.280844 s_2_1  + 1.280844 s_2_7  > -983.724800
t_1_1 - t_1_7 - 1000.000000 s_1_7  > -935.739650
t_1_1 - t_2_7 - 1000.000000 s_2_7  > -972.448200
t_2_1 - t_1_7 - 1000.000000 s_1_7  > -935.739650
t_2_1 - t_2_7 - 1000.000000 s_2_7  > -972.448200
s_1_1 + s_1_8 + 1000 r_1_1_8 >= 2
- s_1_1 - s_1_8 - 1000 r_1_1_8 >= -1001
t_1_1 - t_1_8 - 1000.000000 u_1_1_8 - 0.000000 s_1_8  + 2000.000000 r_1_1_8 > -935.570400
s_2_1 + s_2_8 + 1000 r_2_1_8 >= 2
- s_2_1 - s_2_8 - 1000 r_2_1_8 >= -1001
t_2_1 - t_2_8 - 1000.000000 u_2_1_8 - 0.000000 s_2_8  + 2000.000000 r_2_1_8 > -973.006833
s_1_2 + s_1_1 + 1000 r_1_1_2 >= 2
- s_1_2 - s_1_1 - 1000 r_1_1_2 >= -1001
t_1_2 - t_1_1 + 1000.000000 u_1_1_2 - 1.309752 s_1_1  + 1.309752 s_1_7  + 2000.000000 r_1_1_2 > 17.395900
s_2_2 + s_2_1 + 1000 r_2_1_2 >= 2
- s_2_2 - s_2_1 - 1000 r_2_1_2 >= -1001
t_2_2 - t_2_1 + 1000.000000 u_2_1_2 - 1.280844 s_2_1  + 1.280844 s_2_7  + 2000.000000 r_2_1_2 > 16.275200
s_1_2 + s_1_3 + 1000 r_1_2_3 >= 2
- s_1_2 - s_1_3 - 1000 r_1_2_3 >= -1001
t_1_2 - t_1_3 - 1000.000000 u_1_2_3 - 1.309752 s_1_3  + 1.309752 s_1_8  + 2000.000000 r_1_2_3 > -969.702133
s_2_2 + s_2_3 + 1000 r_2_2_3 >= 2
- s_2_2 - s_2_3 - 1000 r_2_2_3 >= -1001
t_2_2 - t_2_3 - 1000.000000 u_2_2_3 - 1.280844 s_2_3  + 1.280844 s_2_8  + 2000.000000 r_2_2_3 > -979.490750
s_1_2 + s_1_4 + 1000 r_1_2_4 >= 2
- s_1_2 - s_1_4 - 1000 r_1_2_4 >= -1001
t_1_2 - t_1_4 - 1000.000000 u_1_2_4 - 1.773575 s_1_4  + 0.463823 s_1_3  + 1.309752 s_1_8  + 2000.000000 r_1_2_4 > -984.627258
s_2_2 + s_2_4 + 1000 r_2_2_4 >= 2
- s_2_2 - s_2_4 - 1000 r_2_2_4 >= -1001
t_2_2 - t_2_4 - 1000.000000 u_2_2_4 - 2.186388 s_2_4  + 0.905544 s_2_3  + 1.280844 s_2_8  + 2000.000000 r_2_2_4 > -990.354542
s_1_2 + s_1_5 + 1000 r_1_2_5 >= 2
- s_1_2 - s_1_5 - 1000 r_1_2_5 >= -1001
t_1_2 - t_1_5 - 1000.000000 u_1_2_5 - 2.619504 s_1_5  + 1.309752 s_1_7  + 1.309752 s_1_8  + 2000.000000 r_1_2_5 > -976.980372
s_2_2 + s_2_5 + 1000 r_2_2_5 >= 2
- s_2_2 - s_2_5 - 1000 r_2_2_5 >= -1001
t_2_2 - t_2_5 - 1000.000000 u_2_2_5 - 2.561689 s_2_5  + 1.280844 s_2_7  + 1.280844 s_2_8  + 2000.000000 r_2_2_5 > -985.476964
t_1_6 - t_1_2 - 1001.309752 s_1_2  + 1.309752 s_1_8  > -981.454369
t_1_6 - t_2_2 - 1001.280844 s_2_2  + 1.280844 s_2_8  > -983.480293
t_2_6 - t_1_2 - 1001.309752 s_1_2  + 1.309752 s_1_8  > -981.454369
t_2_6 - t_2_2 - 1001.280844 s_2_2  + 1.280844 s_2_8  > -983.480293
s_1_2 + s_1_7 + 1000 r_1_2_7 >= 2
- s_1_2 - s_1_7 - 1000 r_1_2_7 >= -1001
t_1_2 - t_1_7 - 1000.000000 u_1_2_7 - 0.000000 s_1_7  + 2000.000000 r_1_2_7 > -935.739650
s_2_2 + s_2_7 + 1000 r_2_2_7 >= 2
- s_2_2 - s_2_7 - 1000 r_2_2_7 >= -1001
t_2_2 - t_2_7 - 1000.000000 u_2_2_7 - 0.000000 s_2_7  + 2000.000000 r_2_2_7 > -972.448200
t_1_2 - t_1_8 - 1000.000000 s_1_8  > -935.570400
t_1_2 - t_2_8 - 1000.000000 s_2_8  > -973.006833
t_2_2 - t_1_8 - 1000.000000 s_1_8  > -935.570400
t_2_2 - t_2_8 - 1000.000000 s_2_8  > -973.006833
s_1_3 + s_1_1 + 1000 r_1_1_3 >= 2
- s_1_3 - s_1_1 - 1000 r_1_1_3 >= -1001
t_1_3 - t_1_1 + 1000.000000 u_1_1_3 - 1.309752 s_1_1  + 1.309752 s_1_7  + 2000.000000 r_1_1_3 > 17.395900
s_2_3 + s_2_1 + 1000 r_2_1_3 >= 2
- s_2_3 - s_2_1 - 1000 r_2_1_3 >= -1001
t_2_3 - t_2_1 + 1000.000000 u_2_1_3 - 1.280844 s_2_1  + 1.280844 s_2_7  + 2000.000000 r_2_1_3 > 16.275200
s_1_3 + s_1_2 + 1000 r_1_2_3 >= 2
- s_1_3 - s_1_2 - 1000 r_1_2_3 >= -1001
t_1_3 - t_1_2 + 1000.000000 u_1_2_3 - 1.309752 s_1_2  + 1.309752 s_1_8  + 2000.000000 r_1_2_3 > 18.545631
s_2_3 + s_2_2 + 1000 r_2_2_3 >= 2
- s_2_3 - s_2_2 - 1000 r_2_2_3 >= -1001
t_2_3 - t_2_2 + 1000.000000 u_2_2_3 - 1.280844 s_2_2  + 1.280844 s_2_8  + 2000.000000 r_2_2_3 > 16.519707
t_1_4 - t_1_3 - 1001.309752 s_1_3  + 1.309752 s_1_8  > -969.702133
t_1_4 - t_2_3 - 1001.280844 s_2_3  + 1.280844 s_2_8  > -979.490750
t_2_4 - t_1_3 - 1001.309752 s_1_3  + 1.309752 s_1_8  > -969.702133
t_2_4 - t_2_3 - 1001.280844 s_2_3  + 1.280844 s_2_8  > -979.490750
s_1_3 + s_1_5 + 1000 r_1_3_5 >= 2
- s_1_3 - s_1_5 - 1000 r_1_3_5 >= -1001
t_1_3 - t_1_5 - 1000.000000 u_1_3_5 - 2.619504 s_1_5  + 1.309752 s_1_7  + 1.309752 s_1_8  + 2000.000000 r_1_3_5 > -976.980372
s_2_3 + s_2_5 + 1000 r_2_3_5 >= 2
- s_2_3 - s_2_5 - 1000 r_2_3_5 >= -1001
t_2_3 - t_2_5 - 1000.000000 u_2_3_5 - 2.561689 s_2_5  + 1.280844 s_2_7  + 1.280844 s_2_8  + 2000.000000 r_2_3_5 > -985.476964
t_1_6 - t_1_3 - 1001.309752 s_1_3  + 1.309752 s_1_8  > -969.702133
t_1_6 - t_2_3 - 1001.280844 s_2_3  + 1.280844 s_2_8  > -979.490750
t_2_6 - t_1_3 - 1001.309752 s_1_3  + 1.309752 s_1_8  > -969.702133
t_2_6 - t_2_3 - 1001.280844 s_2_3  + 1.280844 s_2_8  > -979.490750
s_1_3 + s_1_7 + 1000 r_1_3_7 >= 2
- s_1_3 - s_1_7 - 1000 r_1_3_7 >= -1001
t_1_3 - t_1_7 - 1000.000000 u_1_3_7 - 0.000000 s_1_7  + 2000.000000 r_1_3_7 > -935.739650
s_2_3 + s_2_7 + 1000 r_2_3_7 >= 2
- s_2_3 - s_2_7 - 1000 r_2_3_7 >= -1001
t_2_3 - t_2_7 - 1000.000000 u_2_3_7 - 0.000000 s_2_7  + 2000.000000 r_2_3_7 > -972.448200
t_1_3 - t_1_8 - 1000.000000 s_1_8  > -935.570400
t_1_3 - t_2_8 - 1000.000000 s_2_8  > -973.006833
t_2_3 - t_1_8 - 1000.000000 s_1_8  > -935.570400
t_2_3 - t_2_8 - 1000.000000 s_2_8  > -973.006833
s_1_4 + s_1_1 + 1000 r_1_1_4 >= 2
- s_1_4 - s_1_1 - 1000 r_1_1_4 >= -1001
t_1_4 - t_1_1 + 1000.000000 u_1_1_4 - 1.309752 s_1_1  + 1.309752 s_1_7  + 2000.000000 r_1_1_4 > 17.395900
s_2_4 + s_2_1 + 1000 r_2_1_4 >= 2
- s_2_4 - s_2_1 - 1000 r_2_1_4 >= -1001
t_2_4 - t_2_1 + 1000.000000 u_2_1_4 - 1.280844 s_2_1  + 1.280844 s_2_7  + 2000.000000 r_2_1_4 > 16.275200
s_1_4 + s_1_2 + 1000 r_1_2_4 >= 2
- s_1_4 - s_1_2 - 1000 r_1_2_4 >= -1001
t_1_4 - t_1_2 + 1000.000000 u_1_2_4 - 1.309752 s_1_2  + 1.309752 s_1_8  + 2000.000000 r_1_2_4 > 18.545631
s_2_4 + s_2_2 + 1000 r_2_2_4 >= 2
- s_2_4 - s_2_2 - 1000 r_2_2_4 >= -1001
t_2_4 - t_2_2 + 1000.000000 u_2_2_4 - 1.280844 s_2_2  + 1.280844 s_2_8  + 2000.000000 r_2_2_4 > 16.519707
s_1_4 + s_1_5 + 1000 r_1_4_5 >= 2
- s_1_4 - s_1_5 - 1000 r_1_4_5 >= -1001
t_1_4 - t_1_5 - 1000.000000 u_1_4_5 - 2.619504 s_1_5  + 1.309752 s_1_7  + 1.309752 s_1_8  + 2000.000000 r_1_4_5 > -976.980372
s_2_4 + s_2_5 + 1000 r_2_4_5 >= 2
- s_2_4 - s_2_5 - 1000 r_2_4_5 >= -1001
t_2_4 - t_2_5 - 1000.000000 u_2_4_5 - 2.561689 s_2_5  + 1.280844 s_2_7  + 1.280844 s_2_8  + 2000.000000 r_2_4_5 > -985.476964
t_1_6 - t_1_4 - 1001.773575 s_1_4  + 0.463823 s_1_3  + 1.309752 s_1_8  > -984.627258
t_1_6 - t_2_4 - 1002.186388 s_2_4  + 0.905544 s_2_3  + 1.280844 s_2_8  > -990.354542
t_2_6 - t_1_4 - 1001.773575 s_1_4  + 0.463823 s_1_3  + 1.309752 s_1_8  > -984.627258
t_2_6 - t_2_4 - 1002.186388 s_2_4  + 0.905544 s_2_3  + 1.280844 s_2_8  > -990.354542
s_1_4 + s_1_7 + 1000 r_1_4_7 >= 2
- s_1_4 - s_1_7 - 1000 r_1_4_7 >= -1001
t_1_4 - t_1_7 - 1000.000000 u_1_4_7 - 0.000000 s_1_7  + 2000.000000 r_1_4_7 > -935.739650
s_2_4 + s_2_7 + 1000 r_2_4_7 >= 2
- s_2_4 - s_2_7 - 1000 r_2_4_7 >= -1001
t_2_4 - t_2_7 - 1000.000000 u_2_4_7 - 0.000000 s_2_7  + 2000.000000 r_2_4_7 > -972.448200
t_1_4 - t_1_8 - 1000.000000 s_1_8  > -935.570400
t_1_4 - t_2_8 - 1000.000000 s_2_8  > -973.006833
t_2_4 - t_1_8 - 1000.000000 s_1_8  > -935.570400
t_2_4 - t_2_8 - 1000.000000 s_2_8  > -973.006833
s_1_5 + s_1_1 + 1000 r_1_1_5 >= 2
- s_1_5 - s_1_1 - 1000 r_1_1_5 >= -1001
t_1_5 - t_1_1 + 1000.000000 u_1_1_5 - 1.309752 s_1_1  + 1.309752 s_1_7  + 2000.000000 r_1_1_5 > 17.395900
s_2_5 + s_2_1 + 1000 r_2_1_5 >= 2
- s_2_5 - s_2_1 - 1000 r_2_1_5 >= -1001
t_2_5 - t_2_1 + 1000.000000 u_2_1_5 - 1.280844 s_2_1  + 1.280844 s_2_7  + 2000.000000 r_2_1_5 > 16.275200
s_1_5 + s_1_2 + 1000 r_1_2_5 >= 2
- s_1_5 - s_1_2 - 1000 r_1_2_5 >= -1001
t_1_5 - t_1_2 + 1000.000000 u_1_2_5 - 1.309752 s_1_2  + 1.309752 s_1_8  + 2000.000000 r_1_2_5 > 18.545631
s_2_5 + s_2_2 + 1000 r_2_2_5 >= 2
- s_2_5 - s_2_2 - 1000 r_2_2_5 >= -1001
t_2_5 - t_2_2 + 1000.000000 u_2_2_5 - 1.280844 s_2_2  + 1.280844 s_2_8  + 2000.000000 r_2_2_5 > 16.519707
s_1_5 + s_1_3 + 1000 r_1_3_5 >= 2
- s_1_5 - s_1_3 - 1000 r_1_3_5 >= -1001
t_1_5 - t_1_3 + 1000.000000 u_1_3_5 - 1.309752 s_1_3  + 1.309752 s_1_8  + 2000.000000 r_1_3_5 > 30.297867
s_2_5 + s_2_3 + 1000 r_2_3_5 >= 2
- s_2_5 - s_2_3 - 1000 r_2_3_5 >= -1001
t_2_5 - t_2_3 + 1000.000000 u_2_3_5 - 1.280844 s_2_3  + 1.280844 s_2_8  + 2000.000000 r_2_3_5 > 20.509250
s_1_5 + s_1_4 + 1000 r_1_4_5 >= 2
- s_1_5 - s_1_4 - 1000 r_1_4_5 >= -1001
t_1_5 - t_1_4 + 1000.000000 u_1_4_5 - 1.773575 s_1_4  + 0.463823 s_1_3  + 1.309752 s_1_8  + 2000.000000 r_1_4_5 > 15.372742
s_2_5 + s_2_4 + 1000 r_2_4_5 >= 2
- s_2_5 - s_2_4 - 1000 r_2_4_5 >= -1001
t_2_5 - t_2_4 + 1000.000000 u_2_4_5 - 2.186388 s_2_4  + 0.905544 s_2_3  + 1.280844 s_2_8  + 2000.000000 r_2_4_5 > 9.645458
t_1_6 - t_1_5 - 1002.619504 s_1_5  + 1.309752 s_1_7  + 1.309752 s_1_8  > -976.980372
t_1_6 - t_2_5 - 1002.561689 s_2_5  + 1.280844 s_2_7  + 1.280844 s_2_8  > -985.476964
t_2_6 - t_1_5 - 1002.619504 s_1_5  + 1.309752 s_1_7  + 1.309752 s_1_8  > -976.980372
t_2_6 - t_2_5 - 1002.561689 s_2_5  + 1.280844 s_2_7  + 1.280844 s_2_8  > -985.476964
t_1_5 - t_1_7 - 1000.000000 s_1_7  > -935.739650
t_1_5 - t_2_7 - 1000.000000 s_2_7  > -972.448200
t_2_5 - t_1_7 - 1000.000000 s_1_7  > -935.739650
t_2_5 - t_2_7 - 1000.000000 s_2_7  > -972.448200
t_1_5 - t_1_8 - 1000.000000 s_1_8  > -935.570400
t_1_5 - t_2_8 - 1000.000000 s_2_8  > -973.006833
t_2_5 - t_1_8 - 1000.000000 s_1_8  > -935.570400
t_2_5 - t_2_8 - 1000.000000 s_2_8  > -973.006833
s_1_7 + s_1_2 + 1000 r_1_2_7 >= 2
- s_1_7 - s_1_2 - 1000 r_1_2_7 >= -1001
t_1_7 - t_1_2 + 1000.000000 u_1_2_7 - 1.309752 s_1_2  + 1.309752 s_1_8  + 2000.000000 r_1_2_7 > 18.545631
s_2_7 + s_2_2 + 1000 r_2_2_7 >= 2
- s_2_7 - s_2_2 - 1000 r_2_2_7 >= -1001
t_2_7 - t_2_2 + 1000.000000 u_2_2_7 - 1.280844 s_2_2  + 1.280844 s_2_8  + 2000.000000 r_2_2_7 > 16.519707
s_1_7 + s_1_3 + 1000 r_1_3_7 >= 2
- s_1_7 - s_1_3 - 1000 r_1_3_7 >= -1001
t_1_7 - t_1_3 + 1000.000000 u_1_3_7 - 1.309752 s_1_3  + 1.309752 s_1_8  + 2000.000000 r_1_3_7 > 30.297867
s_2_7 + s_2_3 + 1000 r_2_3_7 >= 2
- s_2_7 - s_2_3 - 1000 r_2_3_7 >= -1001
t_2_7 - t_2_3 + 1000.000000 u_2_3_7 - 1.280844 s_2_3  + 1.280844 s_2_8  + 2000.000000 r_2_3_7 > 20.509250
s_1_7 + s_1_4 + 1000 r_1_4_7 >= 2
- s_1_7 - s_1_4 - 1000 r_1_4_7 >= -1001
t_1_7 - t_1_4 + 1000.000000 u_1_4_7 - 1.773575 s_1_4  + 0.463823 s_1_3  + 1.309752 s_1_8  + 2000.000000 r_1_4_7 > 15.372742
s_2_7 + s_2_4 + 1000 r_2_4_7 >= 2
- s_2_7 - s_2_4 - 1000 r_2_4_7 >= -1001
t_2_7 - t_2_4 + 1000.000000 u_2_4_7 - 2.186388 s_2_4  + 0.905544 s_2_3  + 1.280844 s_2_8  + 2000.000000 r_2_4_7 > 9.645458
s_1_7 + s_1_8 + 1000 r_1_7_8 >= 2
- s_1_7 - s_1_8 - 1000 r_1_7_8 >= -1001
t_1_7 - t_1_8 - 1000.000000 u_1_7_8 - 0.000000 s_1_8  + 2000.000000 r_1_7_8 > -935.570400
s_2_7 + s_2_8 + 1000 r_2_7_8 >= 2
- s_2_7 - s_2_8 - 1000 r_2_7_8 >= -1001
t_2_7 - t_2_8 - 1000.000000 u_2_7_8 - 0.000000 s_2_8  + 2000.000000 r_2_7_8 > -973.006833
s_1_8 + s_1_1 + 1000 r_1_1_8 >= 2
- s_1_8 - s_1_1 - 1000 r_1_1_8 >= -1001
t_1_8 - t_1_1 + 1000.000000 u_1_1_8 - 1.309752 s_1_1  + 1.309752 s_1_7  + 2000.000000 r_1_1_8 > 17.395900
s_2_8 + s_2_1 + 1000 r_2_1_8 >= 2
- s_2_8 - s_2_1 - 1000 r_2_1_8 >= -1001
t_2_8 - t_2_1 + 1000.000000 u_2_1_8 - 1.280844 s_2_1  + 1.280844 s_2_7  + 2000.000000 r_2_1_8 > 16.275200
s_1_8 + s_1_7 + 1000 r_1_7_8 >= 2
- s_1_8 - s_1_7 - 1000 r_1_7_8 >= -1001
t_1_8 - t_1_7 + 1000.000000 u_1_7_8 - 0.000000 s_1_7  + 2000.000000 r_1_7_8 > 64.260350
s_2_8 + s_2_7 + 1000 r_2_7_8 >= 2
- s_2_8 - s_2_7 - 1000 r_2_7_8 >= -1001
t_2_8 - t_2_7 + 1000.000000 u_2_7_8 - 0.000000 s_2_7  + 2000.000000 r_2_7_8 > 27.551800
Binary
s_1_1
s_2_1
s_1_2
s_2_2
s_1_3
s_2_3
s_1_4
s_2_4
s_1_5
s_2_5
s_1_6
s_2_6
s_1_7
s_2_7
s_1_8
s_2_8
u_1_1_2
r_1_1_2
u_2_1_2
r_2_1_2
u_1_1_3
r_1_1_3
u_2_1_3
r_2_1_3
u_1_1_4
r_1_1_4
u_2_1_4
r_2_1_4
u_1_1_5
r_1_1_5
u_2_1_5
r_2_1_5
u_1_1_8
r_1_1_8
u_2_1_8
r_2_1_8
u_1_2_3
r_1_2_3
u_2_2_3
r_2_2_3
u_1_2_4
r_1_2_4
u_2_2_4
r_2_2_4
u_1_2_5
r_1_2_5
u_2_2_5
r_2_2_5
u_1_2_7
r_1_2_7
u_2_2_7
r_2_2_7
u_1_3_5
r_1_3_5
u_2_3_5
r_2_3_5
u_1_3_7
r_1_3_7
u_2_3_7
r_2_3_7
u_1_4_5
r_1_4_5
u_2_4_5
r_2_4_5
u_1_4_7
r_1_4_7
u_2_4_7
r_2_4_7
u_1_7_8
r_1_7_8
u_2_7_8
r_2_7_8

End
